Route #1: 8 39 53
Route #2: 69 98 72
Route #3: 110 122 61
Route #4: 60 90 102
Route #5: 111 86
Route #6: 93 26
Route #7: 120 10
Route #8: 35 103
Route #9: 78 28 124 2 6 34 50
Route #10: 62 85 30 1 46 27 108
Route #11: 24 23 13 74 97 123 14
Route #12: 59 9 19 11 114 87
Route #13: 38 96
Route #14: 56 49 82
Route #15: 94 47 118 63 79 36 55 117
Route #16: 5 33 113
Route #17: 37 12
Route #18: 52 43 106 76
Route #19: 66 116 17 15 92 81 44
Route #20: 70 115 88 89 105 51
Route #21: 75 45 54
Route #22: 112 18
Route #23: 58 80 41 65 40 22 68 25 109
Route #24: 73 99 16 42
Route #25: 101 77 7 107 4 95
Route #26: 91 100 48
Route #27: 31 3
Route #28: 83 21 67 84
Route #29: 119 71 104 29 20
Route #30: 121 64 32 57
Cost 55698.000000